500
1000
495
495
495
495
493
492
491
491
490
490
490
489
489
488
488
488
487
487
487
487
487
485
485
484
482
482
481
481
480
480
480
479
479
478
478
478
478
478
477
477
477
476
475
475
474
474
474
473
472
471
470
470
468
467
466
466
465
465
465
465
464
464
464
463
462
462
462
461
461
457
457
457
456
456
455
455
454
453
448
448
448
448
447
447
447
446
443
442
441
437
436
436
436
436
435
435
434
434
433
432
432
432
432
431
431
431
430
429
429
429
428
427
426
426
425
425
425
425
425
424
424
422
421
420
420
418
418
416
415
415
415
414
414
413
413
413
410
409
409
409
408
407
406
405
404
404
404
403
403
401
401
400
399
398
397
396
396
396
395
395
394
393
393
392
392
392
391
391
390
388
388
387
387
387
386
386
385
385
384
383
383
382
380
380
380
380
380
378
376
376
375
374
374
374
373
373
371
369
369
367
367
366
366
366
366
365
364
364
363
363
363
363
362
362
359
359
358
357
356
356
355
355
355
354
354
353
353
352
351
350
350
348
348
347
347
346
346
345
344
343
342
342
341
341
339
338
338
338
337
337
337
336
336
334
333
332
332
331
329
329
328
328
326
323
323
322
322
322
321
321
320
318
317
316
315
315
314
314
313
312
312
310
310
309
308
308
307
306
306
305
305
304
304
303
302
301
301
300
299
298
298
296
295
295
292
292
291
291
291
290
290
288
288
288
285
285
285
284
284
282
282
281
281
281
281
278
278
276
275
275
274
274
273
273
272
272
271
270
270
268
267
267
267
264
263
263
263
263
261
261
260
259
258
258
258
256
255
255
255
255
254
252
252
250
249
248
248
248
248
247
246
246
246
245
245
245
245
244
244
244
244
244
244
242
242
240
240
240
239
239
238
237
237
236
236
234
234
232
232
232
231
230
229
228
228
227
227
226
225
225
225
223
223
222
222
222
220
220
220
218
218
215
215
214
214
213
213
213
212
211
211
210
209
208
208
207
207
207
206
204
204
204
204
202
202
200
200
199
197
197
196
196
196
195
194
194
193
193
191
189
188
187
185
185
185
184
183
183
183
183
183
182
182
182
179
179
179
179
178
178
178
178
177
177
176
176
176
176
175
175
174
174
172
171
170
169
169
167
167
167
